c CNF file corresponding to a (partial) station packing problem.
p cnf 5285 229
1 2 3 4 5 6 7 8 9 10 11 12 13 14 0
-1 -2 0
-1 -3 0
-1 -4 0
-1 -5 0
-1 -6 0
-1 -7 0
-1 -8 0
-1 -9 0
-1 -10 0
-1 -11 0
-1 -12 0
-1 -13 0
-1 -14 0
-2 -3 0
-2 -4 0
-2 -5 0
-2 -6 0
-2 -7 0
-2 -8 0
-2 -9 0
-2 -10 0
-2 -11 0
-2 -12 0
-2 -13 0
-2 -14 0
-3 -4 0
-3 -5 0
-3 -6 0
-3 -7 0
-3 -8 0
-3 -9 0
-3 -10 0
-3 -11 0
-3 -12 0
-3 -13 0
-3 -14 0
-4 -5 0
-4 -6 0
-4 -7 0
-4 -8 0
-4 -9 0
-4 -10 0
-4 -11 0
-4 -12 0
-4 -13 0
-4 -14 0
-5 -6 0
-5 -7 0
-5 -8 0
-5 -9 0
-5 -10 0
-5 -11 0
-5 -12 0
-5 -13 0
-5 -14 0
-6 -7 0
-6 -8 0
-6 -9 0
-6 -10 0
-6 -11 0
-6 -12 0
-6 -13 0
-6 -14 0
-7 -8 0
-7 -9 0
-7 -10 0
-7 -11 0
-7 -12 0
-7 -13 0
-7 -14 0
-8 -9 0
-8 -10 0
-8 -11 0
-8 -12 0
-8 -13 0
-8 -14 0
-9 -10 0
-9 -11 0
-9 -12 0
-9 -13 0
-9 -14 0
-10 -11 0
-10 -12 0
-10 -13 0
-10 -14 0
-11 -12 0
-11 -13 0
-11 -14 0
-12 -13 0
-12 -14 0
-13 -14 0
5269 5270 5271 5272 5273 5274 5275 5276 5277 5278 5279 5280 5281 5282 5283 5284 5285 0
-5269 -5270 0
-5269 -5271 0
-5269 -5272 0
-5269 -5273 0
-5269 -5274 0
-5269 -5275 0
-5269 -5276 0
-5269 -5277 0
-5269 -5278 0
-5269 -5279 0
-5269 -5280 0
-5269 -5281 0
-5269 -5282 0
-5269 -5283 0
-5269 -5284 0
-5269 -5285 0
-5270 -5271 0
-5270 -5272 0
-5270 -5273 0
-5270 -5274 0
-5270 -5275 0
-5270 -5276 0
-5270 -5277 0
-5270 -5278 0
-5270 -5279 0
-5270 -5280 0
-5270 -5281 0
-5270 -5282 0
-5270 -5283 0
-5270 -5284 0
-5270 -5285 0
-5271 -5272 0
-5271 -5273 0
-5271 -5274 0
-5271 -5275 0
-5271 -5276 0
-5271 -5277 0
-5271 -5278 0
-5271 -5279 0
-5271 -5280 0
-5271 -5281 0
-5271 -5282 0
-5271 -5283 0
-5271 -5284 0
-5271 -5285 0
-5272 -5273 0
-5272 -5274 0
-5272 -5275 0
-5272 -5276 0
-5272 -5277 0
-5272 -5278 0
-5272 -5279 0
-5272 -5280 0
-5272 -5281 0
-5272 -5282 0
-5272 -5283 0
-5272 -5284 0
-5272 -5285 0
-5273 -5274 0
-5273 -5275 0
-5273 -5276 0
-5273 -5277 0
-5273 -5278 0
-5273 -5279 0
-5273 -5280 0
-5273 -5281 0
-5273 -5282 0
-5273 -5283 0
-5273 -5284 0
-5273 -5285 0
-5274 -5275 0
-5274 -5276 0
-5274 -5277 0
-5274 -5278 0
-5274 -5279 0
-5274 -5280 0
-5274 -5281 0
-5274 -5282 0
-5274 -5283 0
-5274 -5284 0
-5274 -5285 0
-5275 -5276 0
-5275 -5277 0
-5275 -5278 0
-5275 -5279 0
-5275 -5280 0
-5275 -5281 0
-5275 -5282 0
-5275 -5283 0
-5275 -5284 0
-5275 -5285 0
-5276 -5277 0
-5276 -5278 0
-5276 -5279 0
-5276 -5280 0
-5276 -5281 0
-5276 -5282 0
-5276 -5283 0
-5276 -5284 0
-5276 -5285 0
-5277 -5278 0
-5277 -5279 0
-5277 -5280 0
-5277 -5281 0
-5277 -5282 0
-5277 -5283 0
-5277 -5284 0
-5277 -5285 0
-5278 -5279 0
-5278 -5280 0
-5278 -5281 0
-5278 -5282 0
-5278 -5283 0
-5278 -5284 0
-5278 -5285 0
-5279 -5280 0
-5279 -5281 0
-5279 -5282 0
-5279 -5283 0
-5279 -5284 0
-5279 -5285 0
-5280 -5281 0
-5280 -5282 0
-5280 -5283 0
-5280 -5284 0
-5280 -5285 0
-5281 -5282 0
-5281 -5283 0
-5281 -5284 0
-5281 -5285 0
-5282 -5283 0
-5282 -5284 0
-5282 -5285 0
-5283 -5284 0
-5283 -5285 0
-5284 -5285 0
